132 2744
39 9 117 51 82 116 63 59 36 90 111 58 100 127 131 44 103 72 96 129 45 53 89 22 24 32 128 38
81 123 118 61 78 84 60 85 43 30 25 120 91 126 95 2 49 29 104 57 55 115 94 67 0 124 23 3 77 5
109 75 71 73 106 7 79 87 107 16 56 52 64 28 69 80 99 102 27 108 105 4 20 10 35 1 8 62 122 15
54 86 101 37 11 65 93 18 98 88 6 66 26 48 130 17 119 12 70 33 92 110 21 13 41 19 14 113 50 31
68 47 76 40 121 83 114 125 97 112 74 34 46 42
